(set-logic HORN)


(declare-fun |INV_MAIN_42| ( Int Int Int Int Int Int Int Int Int Int ) Bool)
(declare-fun |CHC_COMP_FALSE| ( ) Bool)

(assert
  (forall ( (A Int) (B Int) (C Int) (D Int) (E Int) (F Int) (G Int) (H Int) (I Int) (J Int) ) 
    (=>
      (and
        (let ((a!1 (not (= (+ I (* (- 1) D)) (- 1))))
      (a!2 (not (= (+ I (* (- 1) C)) (- 1))))
      (a!3 (not (= (+ E (* (- 1) D)) (- 1))))
      (a!4 (not (= (+ E (* (- 1) C)) (- 1)))))
  (and (= G D)
       (= B A)
       (not (= A 0))
       (or (= J A) a!1)
       (or (= J A) a!2)
       (or (not (= I E)) (= J F))
       (or (= F A) a!3)
       (or (= F A) a!4)
       (= H C)))
      )
      (INV_MAIN_42 A B C D E F G H I J)
    )
  )
)
(assert
  (forall ( (A Int) (B Int) (C Int) (D Int) (E Int) (F Int) (G Int) (H Int) (I Int) (J Int) (K Int) (L Int) (M Int) (N Int) (O Int) (P Int) (Q Int) (R Int) (S Int) (T Int) (U Int) (V Int) (W Int) (X Int) (Y Int) (Z Int) (A1 Int) (B1 Int) (C1 Int) (D1 Int) (E1 Int) (F1 Int) (G1 Int) (H1 Int) (I1 Int) (J1 Int) (K1 Int) (L1 Int) (M1 Int) (N1 Int) (O1 Int) (P1 Int) (Q1 Int) (R1 Int) (S1 Int) (T1 Int) (U1 Int) (V1 Int) (W1 Int) (X1 Int) (Y1 Int) (Z1 Int) (A2 Int) (B2 Int) (C2 Int) (D2 Int) (E2 Int) (F2 Int) (G2 Int) (H2 Int) (I2 Int) (J2 Int) (K2 Int) (L2 Int) (M2 Int) (N2 Int) (O2 Int) (P2 Int) (Q2 Int) (R2 Int) (S2 Int) (T2 Int) (U2 Int) (V2 Int) (W2 Int) (X2 Int) (Y2 Int) (Z2 Int) (A3 Int) (B3 Int) (C3 Int) (D3 Int) (E3 Int) (F3 Int) (G3 Int) (H3 Int) (I3 Int) (J3 Int) (K3 Int) (L3 Int) (M3 Int) (N3 Int) (O3 Int) (P3 Int) (Q3 Int) (R3 Int) (S3 Int) (T3 Int) (U3 Int) (V3 Int) ) 
    (=>
      (and
        (INV_MAIN_42 K L M N O P Q R S T)
        (INV_MAIN_42 M3 N3 O3 P3 Q3 R3 S3 T3 U3 V3)
        (INV_MAIN_42 C3 D3 E3 F3 G3 H3 I3 J3 K3 L3)
        (INV_MAIN_42 S2 T2 U2 V2 W2 X2 Y2 Z2 A3 B3)
        (INV_MAIN_42 I2 J2 K2 L2 M2 N2 O2 P2 Q2 R2)
        (INV_MAIN_42 Y1 Z1 A2 B2 C2 D2 E2 F2 G2 H2)
        (INV_MAIN_42 O1 P1 Q1 R1 S1 T1 U1 V1 W1 X1)
        (INV_MAIN_42 E1 F1 G1 H1 I1 J1 K1 L1 M1 N1)
        (INV_MAIN_42 U V W X Y Z A1 B1 C1 D1)
        (let ((a!1 (not (= (+ E (* (- 1) D)) (- 1))))
      (a!2 (not (= (+ E (* (- 1) C)) (- 1))))
      (a!3 (not (= (+ I (* (- 1) H)) (- 1))))
      (a!4 (not (= (+ I (* (- 1) G)) (- 1)))))
  (and (= (+ K1 (* (- 1) G)) (- 1))
       (= (+ I1 (* (- 1) C)) (- 1))
       (= (+ H1 (* (- 1) D)) (- 1))
       (= (+ G1 (* (- 1) C)) (- 1))
       (= (+ C1 (* (- 1) G)) (- 1))
       (= (+ B1 (* (- 1) H)) (- 1))
       (= (+ A1 (* (- 1) G)) (- 1))
       (= (+ Y (* (- 1) C)) (- 1))
       (= (+ X (* (- 1) D)) (- 1))
       (= (+ W (* (- 1) C)) (- 1))
       (= (+ S (* (- 1) H)) (- 1))
       (= (+ R (* (- 1) H)) (- 1))
       (= (+ Q (* (- 1) G)) (- 1))
       (= (+ O (* (- 1) C)) (- 1))
       (= (+ N (* (- 1) D)) (- 1))
       (= (+ M (* (- 1) C)) (- 1))
       (= (+ G2 (* (- 1) G)) (- 1))
       (= (+ F2 (* (- 1) H)) (- 1))
       (= (+ E2 (* (- 1) G)) (- 1))
       (= (+ C2 (* (- 1) D)) (- 1))
       (= (+ B2 (* (- 1) D)) (- 1))
       (= (+ A2 (* (- 1) C)) (- 1))
       (= (+ W1 (* (- 1) H)) (- 1))
       (= (+ V1 (* (- 1) H)) (- 1))
       (= (+ U1 (* (- 1) G)) (- 1))
       (= (+ S1 (* (- 1) D)) (- 1))
       (= (+ R1 (* (- 1) D)) (- 1))
       (= (+ Q1 (* (- 1) C)) (- 1))
       (= (+ K3 (* (- 1) G)) (- 1))
       (= (+ J3 (* (- 1) H)) (- 1))
       (= (+ I3 (* (- 1) G)) (- 1))
       (= (+ F3 (* (- 1) D)) (- 1))
       (= (+ E3 (* (- 1) C)) (- 1))
       (= (+ A3 (* (- 1) H)) (- 1))
       (= (+ Z2 (* (- 1) H)) (- 1))
       (= (+ Y2 (* (- 1) G)) (- 1))
       (= (+ V2 (* (- 1) D)) (- 1))
       (= (+ U2 (* (- 1) C)) (- 1))
       (= (+ P2 (* (- 1) H)) (- 1))
       (= (+ O2 (* (- 1) G)) (- 1))
       (= (+ M2 (* (- 1) D)) (- 1))
       (= (+ L2 (* (- 1) D)) (- 1))
       (= (+ K2 (* (- 1) C)) (- 1))
       (= (+ T3 (* (- 1) H)) (- 1))
       (= (+ S3 (* (- 1) G)) (- 1))
       (= (+ P3 (* (- 1) D)) (- 1))
       (= (+ O3 (* (- 1) C)) (- 1))
       (= B A)
       (not (= A 0))
       (= N1 J)
       (= M1 I)
       (= J1 A)
       (= F1 N3)
       (= E1 M3)
       (= D1 L3)
       (= Z A)
       (= V N3)
       (= U M3)
       (= T L3)
       (= P A)
       (= L N3)
       (= K M3)
       (= H2 L3)
       (= D2 A)
       (= Z1 N3)
       (= Y1 M3)
       (= X1 L3)
       (= T1 A)
       (= P1 N3)
       (= O1 M3)
       (not (= L3 0))
       (= H3 F)
       (= G3 E)
       (= D3 N3)
       (= C3 M3)
       (= B3 L3)
       (= X2 F)
       (= W2 E)
       (= T2 N3)
       (= S2 M3)
       (= R2 J)
       (= Q2 I)
       (= N2 A)
       (= J2 N3)
       (= I2 M3)
       (= V3 J)
       (= U3 I)
       (= R3 F)
       (= Q3 E)
       (or (= F A) a!1)
       (or (= F A) a!2)
       (or (= L3 J) a!3)
       (or (= L3 J) a!4)
       (= (+ L1 (* (- 1) H)) (- 1))))
      )
      (INV_MAIN_42 A B C D E F G H I J)
    )
  )
)
(assert
  (forall ( (A Int) (B Int) (C Int) (D Int) (E Int) (F Int) (G Int) (H Int) (I Int) (J Int) (K Int) (L Int) (M Int) (N Int) (O Int) (P Int) (Q Int) (R Int) (S Int) (T Int) (U Int) (V Int) (W Int) (X Int) (Y Int) (Z Int) (A1 Int) (B1 Int) (C1 Int) (D1 Int) (E1 Int) (F1 Int) (G1 Int) (H1 Int) (I1 Int) (J1 Int) (K1 Int) (L1 Int) (M1 Int) (N1 Int) (O1 Int) (P1 Int) (Q1 Int) (R1 Int) (S1 Int) (T1 Int) (U1 Int) (V1 Int) (W1 Int) (X1 Int) (Y1 Int) (Z1 Int) (A2 Int) (B2 Int) (C2 Int) (D2 Int) (E2 Int) (F2 Int) (G2 Int) (H2 Int) (I2 Int) (J2 Int) (K2 Int) (L2 Int) (M2 Int) (N2 Int) (O2 Int) (P2 Int) (Q2 Int) (R2 Int) ) 
    (=>
      (and
        (INV_MAIN_42 K L M N O P Q R S T)
        (INV_MAIN_42 I2 J2 K2 L2 M2 N2 O2 P2 Q2 R2)
        (INV_MAIN_42 Y1 Z1 A2 B2 C2 D2 E2 F2 G2 H2)
        (INV_MAIN_42 O1 P1 Q1 R1 S1 T1 U1 V1 W1 X1)
        (INV_MAIN_42 E1 F1 G1 H1 I1 J1 K1 L1 M1 N1)
        (INV_MAIN_42 U V W X Y Z A1 B1 C1 D1)
        (let ((a!1 (not (= (+ E (* (- 1) D)) (- 1))))
      (a!2 (not (= (+ E (* (- 1) C)) (- 1)))))
  (and (= (+ X (* (- 1) D)) (- 1))
       (= (+ W (* (- 1) C)) (- 1))
       (= (+ O (* (- 1) C)) (- 1))
       (= (+ N (* (- 1) D)) (- 1))
       (= (+ M (* (- 1) C)) (- 1))
       (= (+ B2 (* (- 1) D)) (- 1))
       (= (+ A2 (* (- 1) C)) (- 1))
       (= (+ S1 (* (- 1) D)) (- 1))
       (= (+ R1 (* (- 1) D)) (- 1))
       (= (+ Q1 (* (- 1) C)) (- 1))
       (= (+ I1 (* (- 1) D)) (- 1))
       (= (+ H1 (* (- 1) D)) (- 1))
       (= (+ G1 (* (- 1) C)) (- 1))
       (= (+ L2 (* (- 1) D)) (- 1))
       (= (+ K2 (* (- 1) C)) (- 1))
       (= B A)
       (not (= A 0))
       (= D1 J)
       (= C1 I)
       (= B1 H)
       (= A1 G)
       (= Z A)
       (= V J2)
       (= U I2)
       (= T 0)
       (= S H)
       (= R H)
       (= Q G)
       (= P A)
       (= L J2)
       (= K I2)
       (= H2 0)
       (= G2 H)
       (= F2 H)
       (= E2 G)
       (= D2 F)
       (= C2 E)
       (= Z1 J2)
       (= Y1 I2)
       (= X1 J)
       (= W1 I)
       (= V1 H)
       (= U1 G)
       (= T1 A)
       (= P1 J2)
       (= O1 I2)
       (= N1 0)
       (= M1 H)
       (= L1 H)
       (= K1 G)
       (= J1 A)
       (= F1 J2)
       (= E1 I2)
       (= R2 J)
       (= Q2 I)
       (= P2 H)
       (= O2 G)
       (= N2 F)
       (= M2 E)
       (or (not (= I H)) (= J 0))
       (or (= F A) a!1)
       (or (= F A) a!2)
       (= (+ Y (* (- 1) C)) (- 1))))
      )
      (INV_MAIN_42 A B C D E F G H I J)
    )
  )
)
(assert
  (forall ( (A Int) (B Int) (C Int) (D Int) (E Int) (F Int) (G Int) (H Int) (I Int) (J Int) (K Int) (L Int) (M Int) (N Int) (O Int) (P Int) (Q Int) (R Int) (S Int) (T Int) (U Int) (V Int) (W Int) (X Int) (Y Int) (Z Int) (A1 Int) (B1 Int) (C1 Int) (D1 Int) (E1 Int) (F1 Int) (G1 Int) (H1 Int) (I1 Int) (J1 Int) (K1 Int) (L1 Int) (M1 Int) (N1 Int) (O1 Int) (P1 Int) (Q1 Int) (R1 Int) (S1 Int) (T1 Int) (U1 Int) (V1 Int) (W1 Int) (X1 Int) (Y1 Int) (Z1 Int) (A2 Int) (B2 Int) (C2 Int) (D2 Int) (E2 Int) (F2 Int) (G2 Int) (H2 Int) (I2 Int) (J2 Int) (K2 Int) (L2 Int) (M2 Int) (N2 Int) (O2 Int) (P2 Int) (Q2 Int) (R2 Int) (S2 Int) (T2 Int) (U2 Int) (V2 Int) (W2 Int) (X2 Int) (Y2 Int) (Z2 Int) (A3 Int) (B3 Int) (C3 Int) (D3 Int) (E3 Int) (F3 Int) (G3 Int) (H3 Int) (I3 Int) (J3 Int) (K3 Int) (L3 Int) (M3 Int) (N3 Int) (O3 Int) (P3 Int) (Q3 Int) (R3 Int) (S3 Int) (T3 Int) (U3 Int) (V3 Int) ) 
    (=>
      (and
        (INV_MAIN_42 K L M N O P Q R S T)
        (INV_MAIN_42 M3 N3 O3 P3 Q3 R3 S3 T3 U3 V3)
        (INV_MAIN_42 C3 D3 E3 F3 G3 H3 I3 J3 K3 L3)
        (INV_MAIN_42 S2 T2 U2 V2 W2 X2 Y2 Z2 A3 B3)
        (INV_MAIN_42 I2 J2 K2 L2 M2 N2 O2 P2 Q2 R2)
        (INV_MAIN_42 Y1 Z1 A2 B2 C2 D2 E2 F2 G2 H2)
        (INV_MAIN_42 O1 P1 Q1 R1 S1 T1 U1 V1 W1 X1)
        (INV_MAIN_42 E1 F1 G1 H1 I1 J1 K1 L1 M1 N1)
        (INV_MAIN_42 U V W X Y Z A1 B1 C1 D1)
        (let ((a!1 (not (= (+ E (* (- 1) D)) (- 1))))
      (a!2 (not (= (+ E (* (- 1) C)) (- 1)))))
  (and (= (+ H1 (* (- 1) D)) (- 1))
       (= (+ G1 (* (- 1) C)) (- 1))
       (= (+ Y (* (- 1) C)) (- 1))
       (= (+ X (* (- 1) D)) (- 1))
       (= (+ W (* (- 1) C)) (- 1))
       (= (+ O (* (- 1) C)) (- 1))
       (= (+ N (* (- 1) D)) (- 1))
       (= (+ M (* (- 1) C)) (- 1))
       (= (+ C2 (* (- 1) D)) (- 1))
       (= (+ B2 (* (- 1) D)) (- 1))
       (= (+ A2 (* (- 1) C)) (- 1))
       (= (+ S1 (* (- 1) D)) (- 1))
       (= (+ R1 (* (- 1) D)) (- 1))
       (= (+ Q1 (* (- 1) C)) (- 1))
       (= (+ F3 (* (- 1) D)) (- 1))
       (= (+ E3 (* (- 1) C)) (- 1))
       (= (+ V2 (* (- 1) D)) (- 1))
       (= (+ U2 (* (- 1) C)) (- 1))
       (= (+ M2 (* (- 1) D)) (- 1))
       (= (+ L2 (* (- 1) D)) (- 1))
       (= (+ K2 (* (- 1) C)) (- 1))
       (= (+ P3 (* (- 1) D)) (- 1))
       (= (+ O3 (* (- 1) C)) (- 1))
       (not (= H G))
       (= B A)
       (not (= A 0))
       (= N1 J)
       (= M1 I)
       (= L1 H)
       (= K1 G)
       (= J1 A)
       (= F1 N3)
       (= E1 M3)
       (= D1 L3)
       (= C1 H)
       (= B1 H)
       (= A1 G)
       (= Z A)
       (= V N3)
       (= U M3)
       (= T B3)
       (= S G)
       (= R H)
       (= Q G)
       (= P A)
       (= L N3)
       (= K M3)
       (= H2 L3)
       (= G2 H)
       (= F2 H)
       (= E2 G)
       (= D2 A)
       (= Z1 N3)
       (= Y1 M3)
       (= X1 B3)
       (= W1 G)
       (= V1 H)
       (= U1 G)
       (= T1 A)
       (= P1 N3)
       (= O1 M3)
       (= K3 H)
       (= J3 H)
       (= I3 G)
       (= H3 F)
       (= G3 E)
       (= D3 N3)
       (= C3 M3)
       (not (= B3 L3))
       (= A3 G)
       (= Z2 H)
       (= Y2 G)
       (= X2 F)
       (= W2 E)
       (= T2 N3)
       (= S2 M3)
       (= R2 J)
       (= Q2 I)
       (= P2 H)
       (= O2 G)
       (= N2 A)
       (= J2 N3)
       (= I2 M3)
       (= V3 J)
       (= U3 I)
       (= T3 H)
       (= S3 G)
       (= R3 F)
       (= Q3 E)
       (or (= F A) a!1)
       (or (= F A) a!2)
       (or (= L3 J) (not (= I H)))
       (or (= B3 J) (not (= I G)))
       (= (+ I1 (* (- 1) C)) (- 1))))
      )
      (INV_MAIN_42 A B C D E F G H I J)
    )
  )
)
(assert
  (forall ( (A Int) (B Int) (C Int) (D Int) (E Int) (F Int) (G Int) (H Int) (I Int) (J Int) (K Int) (L Int) (M Int) (N Int) (O Int) (P Int) (Q Int) (R Int) (S Int) (T Int) (U Int) (V Int) (W Int) (X Int) (Y Int) (Z Int) (A1 Int) (B1 Int) (C1 Int) (D1 Int) (E1 Int) (F1 Int) (G1 Int) (H1 Int) (I1 Int) (J1 Int) (K1 Int) (L1 Int) (M1 Int) (N1 Int) (O1 Int) (P1 Int) (Q1 Int) (R1 Int) (S1 Int) (T1 Int) (U1 Int) (V1 Int) (W1 Int) (X1 Int) (Y1 Int) (Z1 Int) (A2 Int) (B2 Int) (C2 Int) (D2 Int) (E2 Int) (F2 Int) (G2 Int) (H2 Int) (I2 Int) (J2 Int) (K2 Int) (L2 Int) (M2 Int) (N2 Int) (O2 Int) (P2 Int) (Q2 Int) (R2 Int) (S2 Int) (T2 Int) (U2 Int) (V2 Int) (W2 Int) (X2 Int) (Y2 Int) (Z2 Int) (A3 Int) (B3 Int) (C3 Int) (D3 Int) (E3 Int) (F3 Int) (G3 Int) (H3 Int) (I3 Int) (J3 Int) (K3 Int) (L3 Int) (M3 Int) (N3 Int) (O3 Int) (P3 Int) (Q3 Int) (R3 Int) (S3 Int) (T3 Int) (U3 Int) (V3 Int) ) 
    (=>
      (and
        (INV_MAIN_42 K L M N O P Q R S T)
        (INV_MAIN_42 M3 N3 O3 P3 Q3 R3 S3 T3 U3 V3)
        (INV_MAIN_42 C3 D3 E3 F3 G3 H3 I3 J3 K3 L3)
        (INV_MAIN_42 S2 T2 U2 V2 W2 X2 Y2 Z2 A3 B3)
        (INV_MAIN_42 I2 J2 K2 L2 M2 N2 O2 P2 Q2 R2)
        (INV_MAIN_42 Y1 Z1 A2 B2 C2 D2 E2 F2 G2 H2)
        (INV_MAIN_42 O1 P1 Q1 R1 S1 T1 U1 V1 W1 X1)
        (INV_MAIN_42 E1 F1 G1 H1 I1 J1 K1 L1 M1 N1)
        (INV_MAIN_42 U V W X Y Z A1 B1 C1 D1)
        (let ((a!1 (not (= (+ I (* (- 1) H)) (- 1))))
      (a!2 (not (= (+ I (* (- 1) G)) (- 1)))))
  (and (= (+ K1 (* (- 1) G)) (- 1))
       (= (+ C1 (* (- 1) G)) (- 1))
       (= (+ B1 (* (- 1) H)) (- 1))
       (= (+ A1 (* (- 1) G)) (- 1))
       (= (+ S (* (- 1) H)) (- 1))
       (= (+ R (* (- 1) H)) (- 1))
       (= (+ Q (* (- 1) G)) (- 1))
       (= (+ G2 (* (- 1) G)) (- 1))
       (= (+ F2 (* (- 1) H)) (- 1))
       (= (+ E2 (* (- 1) G)) (- 1))
       (= (+ W1 (* (- 1) H)) (- 1))
       (= (+ V1 (* (- 1) H)) (- 1))
       (= (+ U1 (* (- 1) G)) (- 1))
       (= (+ K3 (* (- 1) G)) (- 1))
       (= (+ J3 (* (- 1) H)) (- 1))
       (= (+ I3 (* (- 1) G)) (- 1))
       (= (+ A3 (* (- 1) H)) (- 1))
       (= (+ Z2 (* (- 1) H)) (- 1))
       (= (+ Y2 (* (- 1) G)) (- 1))
       (= (+ P2 (* (- 1) H)) (- 1))
       (= (+ O2 (* (- 1) G)) (- 1))
       (= (+ T3 (* (- 1) H)) (- 1))
       (= (+ S3 (* (- 1) G)) (- 1))
       (not (= D C))
       (= N1 J)
       (= M1 I)
       (not (= J1 N2))
       (= I1 C)
       (= H1 D)
       (= G1 C)
       (= F1 B)
       (= E1 A)
       (= D1 L3)
       (= Z J1)
       (= Y C)
       (= X D)
       (= W C)
       (= V B)
       (= U A)
       (= T L3)
       (= P J1)
       (= O C)
       (= N D)
       (= M C)
       (= L B)
       (= K A)
       (= H2 L3)
       (= D2 N2)
       (= C2 D)
       (= B2 D)
       (= A2 C)
       (= Z1 B)
       (= Y1 A)
       (= X1 L3)
       (= T1 N2)
       (= S1 D)
       (= R1 D)
       (= Q1 C)
       (= P1 B)
       (= O1 A)
       (not (= L3 0))
       (= H3 F)
       (= G3 E)
       (= F3 D)
       (= E3 C)
       (= D3 B)
       (= C3 A)
       (= B3 L3)
       (= X2 F)
       (= W2 E)
       (= V2 D)
       (= U2 C)
       (= T2 B)
       (= S2 A)
       (= R2 J)
       (= Q2 I)
       (= M2 D)
       (= L2 D)
       (= K2 C)
       (= J2 B)
       (= I2 A)
       (= V3 J)
       (= U3 I)
       (= R3 F)
       (= Q3 E)
       (= P3 D)
       (= O3 C)
       (= N3 B)
       (= M3 A)
       (or (= J1 F) (not (= E C)))
       (or (= L3 J) a!1)
       (or (= L3 J) a!2)
       (or (= N2 F) (not (= E D)))
       (= (+ L1 (* (- 1) H)) (- 1))))
      )
      (INV_MAIN_42 A B C D E F G H I J)
    )
  )
)
(assert
  (forall ( (A Int) (B Int) (C Int) (D Int) (E Int) (F Int) (G Int) (H Int) (I Int) (J Int) (K Int) (L Int) (M Int) (N Int) (O Int) (P Int) (Q Int) (R Int) (S Int) (T Int) (U Int) (V Int) (W Int) (X Int) (Y Int) (Z Int) (A1 Int) (B1 Int) (C1 Int) (D1 Int) (E1 Int) (F1 Int) (G1 Int) (H1 Int) (I1 Int) (J1 Int) (K1 Int) (L1 Int) (M1 Int) (N1 Int) (O1 Int) (P1 Int) (Q1 Int) (R1 Int) (S1 Int) (T1 Int) (U1 Int) (V1 Int) (W1 Int) (X1 Int) (Y1 Int) (Z1 Int) (A2 Int) (B2 Int) (C2 Int) (D2 Int) (E2 Int) (F2 Int) (G2 Int) (H2 Int) (I2 Int) (J2 Int) (K2 Int) (L2 Int) (M2 Int) (N2 Int) (O2 Int) (P2 Int) (Q2 Int) (R2 Int) ) 
    (=>
      (and
        (INV_MAIN_42 K L M N O P Q R S T)
        (INV_MAIN_42 I2 J2 K2 L2 M2 N2 O2 P2 Q2 R2)
        (INV_MAIN_42 Y1 Z1 A2 B2 C2 D2 E2 F2 G2 H2)
        (INV_MAIN_42 O1 P1 Q1 R1 S1 T1 U1 V1 W1 X1)
        (INV_MAIN_42 E1 F1 G1 H1 I1 J1 K1 L1 M1 N1)
        (INV_MAIN_42 U V W X Y Z A1 B1 C1 D1)
        (let ((a!1 (not (= (+ I (* (- 1) H)) (- 1))))
      (a!2 (not (= (+ I (* (- 1) G)) (- 1)))))
  (and (= (+ B1 (* (- 1) H)) (- 1))
       (= (+ A1 (* (- 1) G)) (- 1))
       (= (+ S (* (- 1) H)) (- 1))
       (= (+ R (* (- 1) H)) (- 1))
       (= (+ Q (* (- 1) G)) (- 1))
       (= (+ G2 (* (- 1) G)) (- 1))
       (= (+ F2 (* (- 1) H)) (- 1))
       (= (+ E2 (* (- 1) G)) (- 1))
       (= (+ W1 (* (- 1) H)) (- 1))
       (= (+ V1 (* (- 1) H)) (- 1))
       (= (+ U1 (* (- 1) G)) (- 1))
       (= (+ L1 (* (- 1) H)) (- 1))
       (= (+ K1 (* (- 1) G)) (- 1))
       (= (+ P2 (* (- 1) H)) (- 1))
       (= (+ O2 (* (- 1) G)) (- 1))
       (= D1 H2)
       (= Z 0)
       (= Y C)
       (= X D)
       (= W C)
       (= V B)
       (= U A)
       (= T H2)
       (= P 0)
       (= O C)
       (= N D)
       (= M C)
       (= L B)
       (= K A)
       (not (= H2 0))
       (= D2 F)
       (= C2 E)
       (= B2 D)
       (= A2 C)
       (= Z1 B)
       (= Y1 A)
       (= X1 H2)
       (= T1 F)
       (= S1 E)
       (= R1 D)
       (= Q1 C)
       (= P1 B)
       (= O1 A)
       (= N1 J)
       (= M1 I)
       (= J1 0)
       (= I1 C)
       (= H1 D)
       (= G1 C)
       (= F1 B)
       (= E1 A)
       (= R2 J)
       (= Q2 I)
       (= N2 F)
       (= M2 E)
       (= L2 D)
       (= K2 C)
       (= J2 B)
       (= I2 A)
       (or (not (= E C)) (= F 0))
       (or (= H2 J) a!1)
       (or (= H2 J) a!2)
       (= (+ C1 (* (- 1) G)) (- 1))))
      )
      (INV_MAIN_42 A B C D E F G H I J)
    )
  )
)
(assert
  (forall ( (A Int) (B Int) (C Int) (D Int) (E Int) (F Int) (G Int) (H Int) (I Int) (J Int) (K Int) (L Int) (M Int) (N Int) (O Int) (P Int) (Q Int) (R Int) (S Int) (T Int) (U Int) (V Int) (W Int) (X Int) (Y Int) (Z Int) (A1 Int) (B1 Int) (C1 Int) (D1 Int) (E1 Int) (F1 Int) (G1 Int) (H1 Int) (I1 Int) (J1 Int) (K1 Int) (L1 Int) (M1 Int) (N1 Int) ) 
    (=>
      (and
        (INV_MAIN_42 A B C D E F G H I J)
        (INV_MAIN_42 E1 F1 G1 H1 I1 J1 K1 L1 M1 N1)
        (INV_MAIN_42 U V W X Y Z A1 B1 C1 D1)
        (INV_MAIN_42 K L M N O P Q R S T)
        (and (= C1 L1)
     (= B1 L1)
     (= A1 K1)
     (= Z J1)
     (= Y H1)
     (= X H1)
     (= W G1)
     (= V F1)
     (= U E1)
     (= T 0)
     (= S K1)
     (= R L1)
     (= Q K1)
     (= P 0)
     (= O G1)
     (= N H1)
     (= M G1)
     (= L F1)
     (= K E1)
     (= J 0)
     (= I L1)
     (= H L1)
     (= G K1)
     (= F 0)
     (= E G1)
     (= D H1)
     (= C G1)
     (= B F1)
     (= A E1)
     (= N1 0)
     (= M1 K1)
     (not (= J1 0))
     (= I1 H1)
     (not (= H1 G1))
     (= D1 0))
      )
      CHC_COMP_FALSE
    )
  )
)
(assert
  (forall ( (A Int) (B Int) (C Int) (D Int) (E Int) (F Int) (G Int) (H Int) (I Int) (J Int) (K Int) (L Int) (M Int) (N Int) (O Int) (P Int) (Q Int) (R Int) (S Int) (T Int) (U Int) (V Int) (W Int) (X Int) (Y Int) (Z Int) (A1 Int) (B1 Int) (C1 Int) (D1 Int) (E1 Int) (F1 Int) (G1 Int) (H1 Int) (I1 Int) (J1 Int) (K1 Int) (L1 Int) (M1 Int) (N1 Int) (O1 Int) (P1 Int) (Q1 Int) (R1 Int) (S1 Int) (T1 Int) (U1 Int) (V1 Int) (W1 Int) (X1 Int) (Y1 Int) (Z1 Int) (A2 Int) (B2 Int) (C2 Int) (D2 Int) (E2 Int) (F2 Int) (G2 Int) (H2 Int) ) 
    (=>
      (and
        (INV_MAIN_42 A B C D E F G H I J)
        (INV_MAIN_42 Y1 Z1 A2 B2 C2 D2 E2 F2 G2 H2)
        (INV_MAIN_42 O1 P1 Q1 R1 S1 T1 U1 V1 W1 X1)
        (INV_MAIN_42 E1 F1 G1 H1 I1 J1 K1 L1 M1 N1)
        (INV_MAIN_42 U V W X Y Z A1 B1 C1 D1)
        (INV_MAIN_42 K L M N O P Q R S T)
        (and (= S E2)
     (= R F2)
     (= Q E2)
     (= P 0)
     (= O A2)
     (= N B2)
     (= M A2)
     (= L Z1)
     (= K Y1)
     (= J 0)
     (= I F2)
     (= H F2)
     (= G E2)
     (= F 0)
     (= E A2)
     (= D B2)
     (= C A2)
     (= B Z1)
     (= A Y1)
     (= X1 0)
     (= W1 E2)
     (= V1 F2)
     (= U1 E2)
     (= T1 D2)
     (= S1 C2)
     (= R1 B2)
     (= Q1 A2)
     (= P1 Z1)
     (= O1 Y1)
     (= N1 0)
     (= M1 F2)
     (= L1 F2)
     (= K1 E2)
     (= J1 D2)
     (= I1 C2)
     (= H1 B2)
     (= G1 A2)
     (= F1 Z1)
     (= E1 Y1)
     (= D1 H2)
     (= C1 C2)
     (= B1 F2)
     (= A1 E2)
     (= Z 0)
     (= Y A2)
     (= X B2)
     (= W A2)
     (= V Z1)
     (= U Y1)
     (not (= H2 D2))
     (= G2 C2)
     (or (not (= F2 C2)) (= H2 0))
     (or (not (= E2 C2)) (= H2 0))
     (or (not (= C2 A2)) (= D2 0))
     (= T 0))
      )
      CHC_COMP_FALSE
    )
  )
)
(assert
  (forall ( (A Int) (B Int) (C Int) (D Int) (E Int) (F Int) (G Int) (H Int) (I Int) (J Int) (K Int) (L Int) (M Int) (N Int) (O Int) (P Int) (Q Int) (R Int) (S Int) (T Int) (U Int) (V Int) (W Int) (X Int) (Y Int) (Z Int) (A1 Int) (B1 Int) (C1 Int) (D1 Int) (E1 Int) (F1 Int) (G1 Int) (H1 Int) (I1 Int) (J1 Int) (K1 Int) (L1 Int) (M1 Int) (N1 Int) ) 
    (=>
      (and
        (INV_MAIN_42 A B C D E F G H I J)
        (INV_MAIN_42 E1 F1 G1 H1 I1 J1 K1 L1 M1 N1)
        (INV_MAIN_42 U V W X Y Z A1 B1 C1 D1)
        (INV_MAIN_42 K L M N O P Q R S T)
        (let ((a!1 (not (= (+ D1 J1 (* (- 1) N1)) 0))))
  (and (not (= D1 N1))
       (= C1 L1)
       (= B1 L1)
       (= A1 K1)
       (= Z J1)
       (= Y H1)
       (= X H1)
       (= W G1)
       (= V F1)
       (= U E1)
       (= T N1)
       (= S K1)
       (= R L1)
       (= Q K1)
       (= P 0)
       (= O G1)
       (= N H1)
       (= M G1)
       (= L F1)
       (= K E1)
       (= J D1)
       (= I L1)
       (= H L1)
       (= G K1)
       (= F 0)
       (= E G1)
       (= D H1)
       (= C G1)
       (= B F1)
       (= A E1)
       (= M1 K1)
       (not (= L1 K1))
       (= I1 H1)
       (or (not (= H1 G1)) (= J1 0))
       a!1))
      )
      CHC_COMP_FALSE
    )
  )
)
(assert
  (forall ( (A Int) (B Int) (C Int) (D Int) (E Int) (F Int) (G Int) (H Int) (I Int) (J Int) (K Int) (L Int) (M Int) (N Int) (O Int) (P Int) (Q Int) (R Int) (S Int) (T Int) (U Int) (V Int) (W Int) (X Int) (Y Int) (Z Int) (A1 Int) (B1 Int) (C1 Int) (D1 Int) (E1 Int) (F1 Int) (G1 Int) (H1 Int) (I1 Int) (J1 Int) (K1 Int) (L1 Int) (M1 Int) (N1 Int) (O1 Int) (P1 Int) (Q1 Int) (R1 Int) (S1 Int) (T1 Int) (U1 Int) (V1 Int) (W1 Int) (X1 Int) (Y1 Int) (Z1 Int) (A2 Int) (B2 Int) (C2 Int) (D2 Int) (E2 Int) (F2 Int) (G2 Int) (H2 Int) ) 
    (=>
      (and
        (INV_MAIN_42 A B C D E F G H I J)
        (INV_MAIN_42 Y1 Z1 A2 B2 C2 D2 E2 F2 G2 H2)
        (INV_MAIN_42 O1 P1 Q1 R1 S1 T1 U1 V1 W1 X1)
        (INV_MAIN_42 E1 F1 G1 H1 I1 J1 K1 L1 M1 N1)
        (INV_MAIN_42 U V W X Y Z A1 B1 C1 D1)
        (INV_MAIN_42 K L M N O P Q R S T)
        (and (= S E2)
     (= R F2)
     (= Q E2)
     (= P 0)
     (= O A2)
     (= N B2)
     (= M A2)
     (= L Z1)
     (= K Y1)
     (= J N1)
     (= I F2)
     (= H F2)
     (= G E2)
     (= F 0)
     (= E A2)
     (= D B2)
     (= C A2)
     (= B Z1)
     (= A Y1)
     (= W1 E2)
     (= V1 F2)
     (= U1 E2)
     (= T1 D2)
     (= S1 C2)
     (= R1 B2)
     (= Q1 A2)
     (= P1 Z1)
     (= O1 Y1)
     (not (= N1 X1))
     (= M1 F2)
     (= L1 F2)
     (= K1 E2)
     (= J1 D2)
     (= I1 C2)
     (= H1 B2)
     (= G1 A2)
     (= F1 Z1)
     (= E1 Y1)
     (= D1 H2)
     (= C1 C2)
     (= B1 F2)
     (= A1 E2)
     (= Z 0)
     (= Y A2)
     (= X B2)
     (= W A2)
     (= V Z1)
     (= U Y1)
     (not (= H2 D2))
     (= G2 C2)
     (not (= F2 E2))
     (or (not (= F2 C2)) (= N1 H2))
     (or (not (= E2 C2)) (= X1 H2))
     (or (not (= C2 A2)) (= D2 0))
     (= T X1))
      )
      CHC_COMP_FALSE
    )
  )
)
(assert
  (forall ( (A Int) (B Int) (C Int) (D Int) (E Int) (F Int) (G Int) (H Int) (I Int) (J Int) (K Int) (L Int) (M Int) (N Int) (O Int) (P Int) (Q Int) (R Int) (S Int) (T Int) (U Int) (V Int) (W Int) (X Int) (Y Int) (Z Int) (A1 Int) (B1 Int) (C1 Int) (D1 Int) (E1 Int) (F1 Int) (G1 Int) (H1 Int) (I1 Int) (J1 Int) (K1 Int) (L1 Int) (M1 Int) (N1 Int) (O1 Int) (P1 Int) (Q1 Int) (R1 Int) (S1 Int) (T1 Int) (U1 Int) (V1 Int) (W1 Int) (X1 Int) (Y1 Int) (Z1 Int) (A2 Int) (B2 Int) (C2 Int) (D2 Int) (E2 Int) (F2 Int) (G2 Int) (H2 Int) (I2 Int) (J2 Int) (K2 Int) (L2 Int) (M2 Int) (N2 Int) (O2 Int) (P2 Int) (Q2 Int) (R2 Int) (S2 Int) (T2 Int) (U2 Int) (V2 Int) (W2 Int) (X2 Int) (Y2 Int) (Z2 Int) (A3 Int) (B3 Int) (C3 Int) (D3 Int) (E3 Int) (F3 Int) (G3 Int) (H3 Int) (I3 Int) (J3 Int) (K3 Int) (L3 Int) ) 
    (=>
      (and
        (INV_MAIN_42 A B C D E F G H I J)
        (INV_MAIN_42 C3 D3 E3 F3 G3 H3 I3 J3 K3 L3)
        (INV_MAIN_42 S2 T2 U2 V2 W2 X2 Y2 Z2 A3 B3)
        (INV_MAIN_42 I2 J2 K2 L2 M2 N2 O2 P2 Q2 R2)
        (INV_MAIN_42 Y1 Z1 A2 B2 C2 D2 E2 F2 G2 H2)
        (INV_MAIN_42 O1 P1 Q1 R1 S1 T1 U1 V1 W1 X1)
        (INV_MAIN_42 E1 F1 G1 H1 I1 J1 K1 L1 M1 N1)
        (INV_MAIN_42 U V W X Y Z A1 B1 C1 D1)
        (INV_MAIN_42 K L M N O P Q R S T)
        (and (= C1 G3)
     (= B1 J3)
     (= A1 I3)
     (not (= Z 0))
     (not (= Z D2))
     (= Y E3)
     (= X F3)
     (= W E3)
     (= V D3)
     (= U C3)
     (= T 0)
     (= S I3)
     (= R J3)
     (= Q I3)
     (= P Z)
     (= O E3)
     (= N F3)
     (= M E3)
     (= L D3)
     (= K C3)
     (= J 0)
     (= I J3)
     (= H J3)
     (= G I3)
     (= F Z)
     (= E E3)
     (= D F3)
     (= C E3)
     (= B D3)
     (= A C3)
     (= X1 0)
     (= W1 I3)
     (= V1 J3)
     (= U1 I3)
     (= T1 D2)
     (= S1 F3)
     (= R1 F3)
     (= Q1 E3)
     (= P1 D3)
     (= O1 C3)
     (= N1 0)
     (= M1 J3)
     (= L1 J3)
     (= K1 I3)
     (= J1 D2)
     (= I1 F3)
     (= H1 F3)
     (= G1 E3)
     (= F1 D3)
     (= E1 C3)
     (= B3 0)
     (= A3 I3)
     (= Z2 J3)
     (= Y2 I3)
     (= X2 H3)
     (= W2 G3)
     (= V2 F3)
     (= U2 E3)
     (= T2 D3)
     (= S2 C3)
     (= R2 0)
     (= Q2 J3)
     (= P2 J3)
     (= O2 I3)
     (= N2 H3)
     (= M2 G3)
     (= L2 F3)
     (= K2 E3)
     (= J2 D3)
     (= I2 C3)
     (= H2 L3)
     (= G2 G3)
     (= F2 J3)
     (= E2 I3)
     (= C2 F3)
     (= B2 F3)
     (= A2 E3)
     (= Z1 D3)
     (= Y1 C3)
     (not (= L3 H3))
     (= K3 G3)
     (not (= F3 E3))
     (or (not (= J3 G3)) (= L3 0))
     (or (not (= I3 G3)) (= L3 0))
     (or (not (= G3 F3)) (= D2 H3))
     (or (not (= G3 E3)) (= Z H3))
     (= D1 L3))
      )
      CHC_COMP_FALSE
    )
  )
)
(assert
  (forall ( (A Int) (B Int) (C Int) (D Int) (E Int) (F Int) (G Int) (H Int) (I Int) (J Int) (K Int) (L Int) (M Int) (N Int) (O Int) (P Int) (Q Int) (R Int) (S Int) (T Int) (U Int) (V Int) (W Int) (X Int) (Y Int) (Z Int) (A1 Int) (B1 Int) (C1 Int) (D1 Int) (E1 Int) (F1 Int) (G1 Int) (H1 Int) (I1 Int) (J1 Int) (K1 Int) (L1 Int) (M1 Int) (N1 Int) ) 
    (=>
      (and
        (INV_MAIN_42 A B C D E F G H I J)
        (INV_MAIN_42 E1 F1 G1 H1 I1 J1 K1 L1 M1 N1)
        (INV_MAIN_42 U V W X Y Z A1 B1 C1 D1)
        (INV_MAIN_42 K L M N O P Q R S T)
        (and (= C1 L1)
     (= B1 L1)
     (= A1 K1)
     (= Z J1)
     (= Y H1)
     (= X H1)
     (= W G1)
     (= V F1)
     (= U E1)
     (= T 0)
     (= S K1)
     (= R L1)
     (= Q K1)
     (not (= P 0))
     (not (= P J1))
     (= O G1)
     (= N H1)
     (= M G1)
     (= L F1)
     (= K E1)
     (= J 0)
     (= I L1)
     (= H L1)
     (= G K1)
     (= F P)
     (= E G1)
     (= D H1)
     (= C G1)
     (= B F1)
     (= A E1)
     (= N1 0)
     (= M1 K1)
     (= I1 H1)
     (not (= H1 G1))
     (= D1 0))
      )
      CHC_COMP_FALSE
    )
  )
)
(assert
  (forall ( (A Int) (B Int) (C Int) (D Int) (E Int) (F Int) (G Int) (H Int) (I Int) (J Int) (K Int) (L Int) (M Int) (N Int) (O Int) (P Int) (Q Int) (R Int) (S Int) (T Int) (U Int) (V Int) (W Int) (X Int) (Y Int) (Z Int) (A1 Int) (B1 Int) (C1 Int) (D1 Int) (E1 Int) (F1 Int) (G1 Int) (H1 Int) (I1 Int) (J1 Int) (K1 Int) (L1 Int) (M1 Int) (N1 Int) (O1 Int) (P1 Int) (Q1 Int) (R1 Int) (S1 Int) (T1 Int) (U1 Int) (V1 Int) (W1 Int) (X1 Int) (Y1 Int) (Z1 Int) (A2 Int) (B2 Int) (C2 Int) (D2 Int) (E2 Int) (F2 Int) (G2 Int) (H2 Int) (I2 Int) (J2 Int) (K2 Int) (L2 Int) (M2 Int) (N2 Int) (O2 Int) (P2 Int) (Q2 Int) (R2 Int) (S2 Int) (T2 Int) (U2 Int) (V2 Int) (W2 Int) (X2 Int) (Y2 Int) (Z2 Int) (A3 Int) (B3 Int) (C3 Int) (D3 Int) (E3 Int) (F3 Int) (G3 Int) (H3 Int) (I3 Int) (J3 Int) (K3 Int) (L3 Int) ) 
    (=>
      (and
        (INV_MAIN_42 A B C D E F G H I J)
        (INV_MAIN_42 C3 D3 E3 F3 G3 H3 I3 J3 K3 L3)
        (INV_MAIN_42 S2 T2 U2 V2 W2 X2 Y2 Z2 A3 B3)
        (INV_MAIN_42 I2 J2 K2 L2 M2 N2 O2 P2 Q2 R2)
        (INV_MAIN_42 Y1 Z1 A2 B2 C2 D2 E2 F2 G2 H2)
        (INV_MAIN_42 O1 P1 Q1 R1 S1 T1 U1 V1 W1 X1)
        (INV_MAIN_42 E1 F1 G1 H1 I1 J1 K1 L1 M1 N1)
        (INV_MAIN_42 U V W X Y Z A1 B1 C1 D1)
        (INV_MAIN_42 K L M N O P Q R S T)
        (and (= C1 G3)
     (= B1 J3)
     (= A1 I3)
     (not (= Z 0))
     (not (= Z D2))
     (= Y E3)
     (= X F3)
     (= W E3)
     (= V D3)
     (= U C3)
     (= T B3)
     (= S I3)
     (= R J3)
     (= Q I3)
     (= P Z)
     (= O E3)
     (= N F3)
     (= M E3)
     (= L D3)
     (= K C3)
     (= J R2)
     (= I J3)
     (= H J3)
     (= G I3)
     (= F Z)
     (= E E3)
     (= D F3)
     (= C E3)
     (= B D3)
     (= A C3)
     (= X1 B3)
     (= W1 I3)
     (= V1 J3)
     (= U1 I3)
     (= T1 D2)
     (= S1 F3)
     (= R1 F3)
     (= Q1 E3)
     (= P1 D3)
     (= O1 C3)
     (= N1 R2)
     (= M1 J3)
     (= L1 J3)
     (= K1 I3)
     (= J1 D2)
     (= I1 F3)
     (= H1 F3)
     (= G1 E3)
     (= F1 D3)
     (= E1 C3)
     (= A3 I3)
     (= Z2 J3)
     (= Y2 I3)
     (= X2 H3)
     (= W2 G3)
     (= V2 F3)
     (= U2 E3)
     (= T2 D3)
     (= S2 C3)
     (not (= R2 B3))
     (= Q2 J3)
     (= P2 J3)
     (= O2 I3)
     (= N2 H3)
     (= M2 G3)
     (= L2 F3)
     (= K2 E3)
     (= J2 D3)
     (= I2 C3)
     (= H2 L3)
     (= G2 G3)
     (= F2 J3)
     (= E2 I3)
     (= C2 F3)
     (= B2 F3)
     (= A2 E3)
     (= Z1 D3)
     (= Y1 C3)
     (not (= L3 H3))
     (= K3 G3)
     (not (= J3 I3))
     (not (= F3 E3))
     (or (not (= J3 G3)) (= R2 L3))
     (or (not (= I3 G3)) (= B3 L3))
     (or (not (= G3 F3)) (= D2 H3))
     (or (not (= G3 E3)) (= Z H3))
     (= D1 L3))
      )
      CHC_COMP_FALSE
    )
  )
)
(assert
  (forall ( (A Int) (B Int) (C Int) (D Int) (E Int) (F Int) (G Int) (H Int) (I Int) (J Int) (K Int) (L Int) (M Int) (N Int) (O Int) (P Int) (Q Int) (R Int) (S Int) (T Int) (U Int) (V Int) (W Int) (X Int) (Y Int) (Z Int) (A1 Int) (B1 Int) (C1 Int) (D1 Int) (E1 Int) (F1 Int) (G1 Int) (H1 Int) (I1 Int) (J1 Int) (K1 Int) (L1 Int) (M1 Int) (N1 Int) ) 
    (=>
      (and
        (INV_MAIN_42 A B C D E F G H I J)
        (INV_MAIN_42 E1 F1 G1 H1 I1 J1 K1 L1 M1 N1)
        (INV_MAIN_42 U V W X Y Z A1 B1 C1 D1)
        (INV_MAIN_42 K L M N O P Q R S T)
        (let ((a!1 (not (= (+ P N1 (* (- 1) J1) (* (- 1) D1)) 0))))
  (and (not (= D1 N1))
       (= C1 L1)
       (= B1 L1)
       (= A1 K1)
       (= Z J1)
       (= Y H1)
       (= X H1)
       (= W G1)
       (= V F1)
       (= U E1)
       (= T N1)
       (= S K1)
       (= R L1)
       (= Q K1)
       (not (= P 0))
       (not (= P J1))
       (= O G1)
       (= N H1)
       (= M G1)
       (= L F1)
       (= K E1)
       (= J D1)
       (= I L1)
       (= H L1)
       (= G K1)
       (= F P)
       (= E G1)
       (= D H1)
       (= C G1)
       (= B F1)
       (= A E1)
       (= M1 K1)
       (not (= L1 K1))
       (= I1 H1)
       (not (= H1 G1))
       a!1))
      )
      CHC_COMP_FALSE
    )
  )
)
(assert
  (forall ( (CHC_COMP_UNUSED Bool) ) 
    (=>
      (and
        CHC_COMP_FALSE
      )
      false
    )
  )
)

(check-sat)
(exit)
